language ESSENCE' 1.0
$ minion Nodes: 20
$ minion TotalTime: 0.001634
$ Savile Row TotalTime: 0.476
letting valid_SetExplicitVarSize_tuple1 be [true, false, false, false, false, false;int(1..6)]
letting valid_SetExplicitVarSize_tuple2_Matrix1D be [[1, 1, 1;int(1..3)], 
[1, 1, 1;int(1..3)], 
[1, 1, 1;int(1..3)], 
[1, 1, 1;int(1..3)], 
[1, 1, 1;int(1..3)], 
[1, 1, 1;int(1..3)];int(1..6)]
